ws_caric/src/star_planner/utils/lkh_tsp_solver/resource/raffles_cluster.tsp
NAME : single_frontier
TYPE : ATSP
DIMENSION : 4
EDGE_WEIGHT_TYPE : EXPLICIT
EDGE_WEIGHT_FORMAT : FULL_MATRIX
EDGE_WEIGHT_SECTION
0 1309 200336 341 
0 0 1000000 1000000 
0 1000000 0 1000000 
0 1000000 1000000 0 
EOF