ws_caric/src/star_planner/utils/lkh_tsp_solver/resource/raffles_cluster.txt
NAME : single_frontier.2000341.tour
COMMENT : Length = 2000341
COMMENT : Found by LKH [Keld Helsgaun] Mon Nov 20 15:25:26 2023
TYPE : TOUR
DIMENSION : 4
TOUR_SECTION
1
4
3
2
-1
EOF
